language ESSENCE' 1.0

letting jobs = 102
letting horizon = 807
letting resourcesRenew = 2
letting resourcesNonrenew = 2
letting resourceLimits = [13, 13, 286, 290]
letting successors = [[2, 3, 4, 6, 7, 8, 9, 10, 12, 13, 16], [31, 29, 28, 26, 25, 24, 17, 15], [26, 5], [28, 26, 24, 21, 19, 18], [29, 28, 25, 22, 14], [32, 26, 24, 22, 11], [32, 31, 29, 26, 24, 22, 17], [32, 28, 26, 25, 21, 17], [32, 26, 25, 11], [21, 20, 15, 14], [35, 31, 29, 20, 18], [31, 26, 20, 18], [35, 30, 27, 23, 21, 20], [32, 31, 24, 18], [35, 32, 18], [35, 33, 31, 30, 25], [30, 27, 23, 20], [40, 30, 27, 23], [40, 37, 32, 29, 27], [47, 43, 41, 40, 39, 38, 37, 36, 34, 33], [47, 43, 39, 38, 34, 33, 31], [44, 40, 36, 33, 30, 27], [49, 47, 43, 39, 38, 37, 36, 34, 33], [49, 48, 47, 44, 43, 42, 39, 38, 36, 33], [50, 49, 43, 41, 39, 38, 37, 36, 34], [43, 38, 35, 30], [53, 50, 49, 48, 47, 43, 41, 39, 38], [53, 47, 46, 43, 39, 38, 35], [58, 53, 52, 48, 43, 42, 39, 36], [58, 55, 53, 51, 50, 49, 47, 41], [50, 49, 44, 40, 36], [53, 44, 39, 38], [68, 55, 54, 53, 52, 51, 50, 46, 45], [59, 58, 54, 51, 48, 42], [48, 44, 40], [68, 64, 61, 59, 57, 55, 54, 51, 46], [59, 55, 54, 51, 46, 44], [68, 65, 64, 61, 60, 58, 57, 55, 54, 51], [68, 64, 59, 55, 54, 45], [68, 64, 62, 56, 52, 45], [68, 56, 52, 46, 45], [68, 64, 61, 57, 46], [74, 71, 64, 62, 60, 59, 55], [71, 68, 67, 66, 63, 62, 58, 56], [67, 65, 63, 61, 60, 57], [76, 74, 67, 65, 62, 60], [71, 63, 62, 54], [74, 72, 69, 67, 64, 63, 57], [82, 76, 74, 70, 68, 67, 60], [74, 66, 63, 61, 57], [82, 74, 69, 67, 66, 63], [75, 71, 69, 63, 59], [71, 66, 64, 56], [82, 76, 66, 56], [82, 75, 72, 67, 63], [85, 83, 79, 78, 77, 75, 74, 72, 70], [85, 83, 79, 77, 75, 73, 71, 70], [85, 82, 76, 72, 70, 69], [89, 83, 82, 77, 72, 67], [85, 78, 69, 66], [88, 86, 85, 83, 82, 79, 77, 76, 75, 73], [85, 82, 78, 73, 70, 69], [83, 79, 78, 77, 76, 73, 70], [86, 83, 82, 77, 76, 73, 70], [88, 85, 83, 79, 73, 71], [89, 83, 77, 75, 72], [88, 86, 85, 81, 78, 73], [88, 85, 81, 79, 77, 73], [92, 89, 88, 83, 77], [101, 89, 88, 87, 81, 80], [101, 89, 87, 86, 81, 78], [86, 73], [101, 92, 87, 80], [88, 87, 80], [101, 100, 97, 92, 91, 90, 84], [99, 98, 92, 91, 90, 89, 87], [87, 80], [100, 97, 92, 91, 90, 84], [101, 100, 97, 91, 90, 84], [100, 97, 91, 90, 84], [100, 97, 96, 92, 91, 90], [100, 97, 96, 94, 92, 91], [101, 99, 98, 96, 94, 91], [99, 98, 96, 95, 94, 93], [98, 96, 92, 90], [99, 98, 97, 93], [100, 97, 93], [95, 94, 93], [96, 94, 93], [95, 94], [93], [95], [102], [102], [102], [102], [102], [102], [102], [102], [102], []]
letting durations = [[0], [2, 3, 5], [4, 7, 8], [4, 5, 8], [6, 9, 10], [7, 7, 8], [1, 8, 9], [4, 8, 9], [4, 5, 10], [1, 3, 6], [2, 3, 6], [2, 9, 10], [3, 7, 8], [3, 5, 8], [1, 6, 7], [1, 8, 10], [3, 7, 9], [3, 5, 7], [7, 8, 9], [5, 6, 10], [4, 9, 9], [1, 3, 6], [2, 4, 7], [1, 4, 6], [3, 3, 4], [2, 4, 7], [2, 6, 6], [1, 4, 8], [1, 6, 10], [4, 4, 8], [5, 5, 10], [3, 8, 9], [2, 9, 10], [6, 9, 10], [4, 4, 5], [2, 3, 10], [7, 8, 9], [4, 5, 6], [2, 7, 8], [2, 3, 7], [2, 3, 8], [1, 5, 7], [8, 9, 10], [1, 5, 5], [4, 8, 9], [4, 6, 9], [1, 2, 8], [2, 7, 9], [2, 4, 10], [2, 6, 9], [2, 6, 7], [3, 4, 9], [2, 3, 5], [3, 4, 8], [2, 3, 8], [4, 4, 6], [1, 2, 6], [3, 4, 10], [5, 6, 10], [2, 8, 9], [4, 4, 10], [4, 5, 7], [2, 3, 7], [1, 3, 10], [2, 7, 10], [5, 6, 8], [4, 6, 7], [8, 8, 10], [5, 8, 10], [3, 3, 6], [2, 6, 9], [2, 6, 8], [6, 10, 10], [2, 8, 9], [3, 5, 6], [3, 4, 10], [1, 3, 8], [2, 5, 5], [4, 8, 9], [1, 2, 5], [6, 8, 10], [1, 5, 6], [8, 8, 9], [6, 8, 10], [2, 3, 4], [2, 6, 7], [4, 9, 10], [1, 6, 7], [1, 1, 3], [1, 4, 5], [1, 7, 10], [5, 7, 8], [1, 2, 10], [3, 4, 10], [6, 9, 10], [5, 8, 10], [4, 5, 8], [1, 4, 7], [1, 2, 7], [1, 3, 9], [7, 9, 9], [0]]
letting resourceUsage = [[[0, 0, 0, 0]], [[2, 5, 0, 10], [2, 3, 0, 10], [1, 2, 0, 10]], [[4, 4, 3, 0], [4, 3, 0, 2], [3, 3, 0, 2]], [[3, 4, 7, 0], [3, 3, 4, 0], [3, 1, 4, 0]], [[3, 2, 0, 7], [2, 2, 0, 7], [2, 2, 0, 5]], [[3, 4, 8, 0], [2, 3, 0, 5], [2, 3, 0, 4]], [[4, 2, 8, 0], [2, 2, 7, 0], [2, 2, 6, 0]], [[5, 5, 8, 0], [3, 3, 0, 6], [2, 1, 0, 6]], [[2, 3, 10, 0], [1, 2, 9, 0], [1, 1, 9, 0]], [[4, 2, 0, 5], [4, 2, 6, 0], [2, 2, 0, 2]], [[2, 3, 0, 4], [2, 3, 5, 0], [2, 1, 5, 0]], [[1, 1, 0, 6], [1, 1, 0, 3], [1, 1, 0, 1]], [[5, 4, 0, 8], [4, 3, 8, 0], [4, 3, 0, 7]], [[4, 2, 7, 0], [4, 2, 6, 0], [4, 2, 0, 2]], [[2, 4, 7, 0], [2, 3, 0, 7], [2, 3, 0, 5]], [[4, 4, 5, 0], [4, 3, 0, 6], [3, 1, 0, 6]], [[4, 2, 0, 7], [2, 1, 0, 6], [2, 1, 2, 0]], [[5, 4, 0, 8], [5, 4, 0, 6], [5, 3, 4, 0]], [[2, 5, 9, 0], [1, 2, 9, 0], [1, 1, 9, 0]], [[4, 4, 6, 0], [4, 4, 0, 6], [2, 3, 0, 4]], [[2, 3, 0, 4], [2, 3, 6, 0], [2, 3, 0, 3]], [[3, 3, 7, 0], [2, 3, 7, 0], [2, 3, 5, 0]], [[3, 5, 0, 7], [3, 3, 0, 5], [1, 2, 0, 5]], [[5, 3, 0, 2], [4, 3, 4, 0], [3, 1, 4, 0]], [[4, 4, 0, 9], [2, 4, 5, 0], [2, 4, 4, 0]], [[5, 5, 0, 6], [4, 5, 5, 0], [2, 5, 5, 0]], [[2, 4, 9, 0], [1, 3, 7, 0], [1, 2, 0, 2]], [[1, 2, 1, 0], [1, 1, 0, 3], [1, 1, 1, 0]], [[5, 4, 0, 5], [4, 2, 8, 0], [2, 2, 8, 0]], [[2, 5, 0, 10], [2, 4, 7, 0], [2, 4, 1, 0]], [[5, 4, 0, 9], [4, 4, 8, 0], [4, 4, 7, 0]], [[4, 3, 10, 0], [4, 3, 0, 5], [4, 3, 0, 3]], [[4, 3, 9, 0], [3, 3, 9, 0], [2, 1, 0, 3]], [[4, 4, 0, 4], [3, 3, 0, 4], [2, 1, 4, 0]], [[3, 5, 10, 0], [1, 2, 0, 6], [1, 1, 0, 6]], [[2, 3, 7, 0], [1, 3, 7, 0], [1, 1, 7, 0]], [[1, 3, 0, 4], [1, 2, 0, 3], [1, 1, 0, 3]], [[3, 2, 0, 8], [2, 1, 0, 6], [1, 1, 0, 5]], [[1, 2, 0, 5], [1, 2, 0, 4], [1, 2, 0, 3]], [[3, 3, 0, 3], [3, 1, 0, 1], [3, 1, 2, 0]], [[3, 5, 0, 8], [2, 5, 0, 6], [1, 5, 0, 1]], [[2, 1, 0, 7], [1, 1, 0, 6], [1, 1, 9, 0]], [[5, 5, 7, 0], [4, 4, 5, 0], [3, 3, 4, 0]], [[3, 4, 3, 0], [2, 3, 2, 0], [2, 3, 0, 2]], [[3, 3, 6, 0], [3, 2, 6, 0], [1, 1, 0, 5]], [[4, 5, 8, 0], [4, 4, 8, 0], [3, 2, 0, 7]], [[4, 3, 0, 7], [4, 3, 0, 4], [4, 3, 9, 0]], [[1, 3, 10, 0], [1, 3, 9, 0], [1, 2, 0, 8]], [[3, 4, 4, 0], [3, 2, 3, 0], [3, 2, 2, 0]], [[4, 2, 9, 0], [2, 2, 7, 0], [2, 2, 6, 0]], [[3, 4, 0, 10], [2, 4, 0, 9], [1, 4, 2, 0]], [[4, 2, 0, 8], [2, 1, 8, 0], [2, 1, 0, 7]], [[3, 4, 6, 0], [3, 3, 5, 0], [3, 3, 3, 0]], [[4, 1, 0, 7], [3, 1, 0, 6], [1, 1, 0, 6]], [[1, 3, 8, 0], [1, 3, 0, 6], [1, 3, 0, 5]], [[5, 4, 6, 0], [4, 4, 0, 7], [4, 4, 0, 1]], [[2, 3, 0, 6], [2, 3, 0, 5], [2, 3, 3, 0]], [[3, 2, 6, 0], [2, 2, 0, 9], [2, 2, 5, 0]], [[1, 2, 0, 8], [1, 2, 0, 7], [1, 2, 0, 6]], [[4, 4, 0, 6], [4, 4, 0, 5], [4, 4, 0, 4]], [[5, 4, 8, 0], [4, 2, 0, 4], [4, 2, 0, 3]], [[3, 4, 0, 9], [2, 3, 0, 9], [2, 3, 0, 8]], [[3, 3, 0, 7], [3, 2, 4, 0], [3, 2, 2, 0]], [[3, 2, 0, 9], [3, 2, 0, 5], [2, 2, 0, 3]], [[2, 5, 9, 0], [2, 5, 8, 0], [2, 5, 0, 8]], [[2, 2, 0, 1], [2, 1, 6, 0], [2, 1, 0, 1]], [[2, 5, 9, 0], [1, 3, 0, 4], [1, 1, 0, 4]], [[3, 3, 8, 0], [2, 3, 0, 5], [2, 1, 6, 0]], [[3, 3, 9, 0], [3, 3, 4, 0], [3, 3, 1, 0]], [[4, 2, 0, 3], [3, 1, 3, 0], [1, 1, 0, 2]], [[4, 3, 0, 9], [4, 2, 4, 0], [4, 2, 0, 6]], [[3, 3, 0, 9], [2, 1, 7, 0], [2, 1, 0, 4]], [[2, 3, 0, 10], [1, 3, 0, 6], [1, 3, 1, 0]], [[4, 3, 0, 6], [4, 3, 3, 0], [4, 3, 0, 5]], [[5, 4, 0, 7], [4, 4, 6, 0], [2, 4, 0, 7]], [[3, 4, 9, 0], [2, 3, 8, 0], [2, 3, 0, 6]], [[3, 4, 4, 0], [3, 2, 2, 0], [3, 1, 1, 0]], [[3, 3, 9, 0], [2, 2, 5, 0], [2, 1, 0, 5]], [[4, 3, 5, 0], [2, 3, 0, 3], [2, 3, 4, 0]], [[2, 1, 0, 6], [2, 1, 0, 5], [2, 1, 3, 0]], [[4, 3, 3, 0], [3, 3, 0, 5], [2, 1, 0, 4]], [[4, 3, 0, 1], [2, 3, 1, 0], [2, 2, 1, 0]], [[4, 2, 7, 0], [3, 1, 0, 4], [2, 1, 0, 3]], [[4, 5, 6, 0], [4, 2, 0, 3], [4, 2, 4, 0]], [[2, 3, 0, 7], [1, 2, 5, 0], [1, 1, 0, 3]], [[5, 2, 0, 4], [4, 1, 0, 3], [4, 1, 0, 2]], [[3, 4, 0, 7], [3, 3, 0, 5], [1, 2, 10, 0]], [[4, 5, 4, 0], [3, 5, 2, 0], [3, 5, 0, 1]], [[1, 4, 0, 4], [1, 3, 6, 0], [1, 2, 0, 4]], [[4, 4, 6, 0], [4, 4, 4, 0], [4, 2, 0, 7]], [[5, 5, 6, 0], [4, 4, 4, 0], [2, 4, 0, 8]], [[1, 2, 0, 8], [1, 2, 0, 6], [1, 2, 2, 0]], [[5, 3, 6, 0], [5, 1, 4, 0], [5, 1, 0, 3]], [[5, 2, 5, 0], [4, 2, 0, 6], [3, 2, 2, 0]], [[3, 3, 0, 8], [2, 3, 0, 6], [2, 3, 0, 5]], [[4, 2, 0, 3], [4, 2, 6, 0], [3, 1, 6, 0]], [[4, 5, 0, 9], [3, 3, 6, 0], [1, 3, 4, 0]], [[2, 3, 0, 4], [1, 3, 4, 0], [1, 2, 3, 0]], [[5, 1, 0, 8], [2, 1, 7, 0], [1, 1, 5, 0]], [[4, 3, 7, 0], [4, 2, 0, 1], [3, 1, 0, 1]], [[4, 3, 0, 2], [3, 3, 1, 0], [2, 3, 0, 2]], [[0, 0, 0, 0]]]
